2 27

50 1876
49 1913
48 1943
47 1955
46 1970
45 1977
44 1993
43 2004
42 2017
40 2024
39 2030
38 2032
37 2035
36 2040
35 2043
34 2045
33 2047
31 2049
30 2053
29 2056
28 2065
27 2069
25 2071
22 2074
20 2075
19 2076
18 2078
